
Gurobi 12.0.2 (win64) logging started Thu May 29 14:02:08 2025

Set parameter LogFile to value "data/solutions/karlsruhe/karlsruhe.log"
Gurobi Optimizer version 12.0.2 build v12.0.2rc0 (win64 - Windows 11.0 (26100.2))

CPU model: Intel(R) Core(TM) i5-14600KF, instruction set [SSE2|AVX|AVX2]
Thread count: 14 physical cores, 20 logical processors, using up to 1 threads

Non-default parameters:
TimeLimit  3600
FeasibilityTol  1e-07
IntFeasTol  1e-07
MIPGap  0
Threads  1
LazyConstraints  1

Academic license 2670408 - for non-commercial use only - registered to s6___@uni-bonn.de
Optimize a model with 4324 rows, 5238 columns and 20162 nonzeros
Model fingerprint: 0x4bed14fc
Model has 1 quadratic constraint
Variable types: 3 continuous, 5235 integer (5235 binary)
Coefficient statistics:
  Matrix range     [2e-03, 1e+07]
  QMatrix range    [1e+00, 1e+01]
  Objective range  [1e+00, 1e+00]
  Bounds range     [1e+00, 1e+00]
  RHS range        [1e+00, 1e+00]
Presolve removed 1 rows and 0 columns
Presolve time: 0.01s
Presolved: 4323 rows, 5238 columns, 19247 nonzeros
Presolved model has 1 quadratic constraint(s)
Variable types: 3 continuous, 5235 integer (5235 binary)

Root relaxation: objective 0.000000e+00, 3 iterations, 0.00 seconds (0.00 work units)

    Nodes    |    Current Node    |     Objective Bounds      |     Work
 Expl Unexpl |  Obj  Depth IntInf | Incumbent    BestBd   Gap | It/Node Time

     0     0    0.00000    0    -          -    0.00000      -     -    0s
     0     0    0.00000    0    9          -    0.00000      -     -    0s
H    0     0                       1.8273898    0.00000   100%     -    0s
     0     0    0.00000    0    9    1.82739    0.00000   100%     -    0s
H    0     0                       1.2519794    0.00000   100%     -    0s
     0     0    0.00000    0    -    1.25198    0.00000   100%     -    0s
     0     0    0.00000    0  261    1.25198    0.00000   100%     -    0s
     0     0    0.00000    0   23    1.25198    0.00000   100%     -    0s
H    0     0                       1.0337127    0.00000   100%     -    0s
     0     0    0.00000    0    -    1.03371    0.00000   100%     -    0s
     0     0    0.00000    0   19    1.03371    0.00000   100%     -    0s
     0     0    0.00000    0    -    1.03371    0.00000   100%     -    0s
     0     0    0.00000    0   70    1.03371    0.00000   100%     -    0s
H    0     0                       1.0059525    0.00000   100%     -    0s
     0     0    0.00000    0   70    1.00595    0.00000   100%     -    0s
     0     2    0.00000    0   70    1.00595    0.00000   100%     -    0s
   571   490     cutoff   63         1.00595    0.00145   100%   106    5s
H  867   409                       1.0046705    0.01301  98.7%  87.9    6s
H 1124   313                       1.0043199    0.01318  98.7%  78.0    7s
  2119   254    0.58398   37  621    1.00432    0.26043  74.1%  61.1   10s
* 3305    19             198       1.0038326    0.98168  2.21%  56.4   14s
* 3321     2             192       1.0022757    1.00189  0.04%  56.2   14s

Cutting planes:
  Cover: 3
  Zero half: 1

Explored 3324 nodes (195007 simplex iterations) in 14.61 seconds (40.64 work units)
Thread count was 1 (of 20 available processors)

Solution count 8: 1.00228 1.00383 1.00432 ... 1.82739

Optimal solution found (tolerance 0.00e+00)
Best objective 1.002275747997e+00, best bound 1.002275747997e+00, gap 0.0000%

User-callback calls 10418, time in user-callback 0.02 sec
